\ LP format - for model browsing. Use MPS format to capture full model detail.
Maximize
obj:   x[1] + x[28] + x[37] + x[40] + x[55] + x[136] + x[145] + x[148] + x[163]
   + x[172] + x[181] + x[184] + x[199] + x[352] + x[2] + x[29] + x[43]
   + x[46] + x[58] + x[151] + x[154] + x[166] + x[187] + x[190] + x[202]
   + x[208] + x[244] + x[355] + x[3] + x[30] + x[49] + x[52] + x[61]
   + x[157] + x[160] + x[169] + x[193] + x[196] + x[205] + x[280] + x[316]
   + x[358] + x[4] + x[31] + x[44] + x[50] + x[56] + x[139] + x[175]
   + x[223] + x[229] + x[235] + x[259] + x[265] + x[271] + x[361] + x[5]
   + x[32] + x[38] + x[53] + x[59] + x[211] + x[217] + x[232] + x[238]
   + x[247] + x[253] + x[268] + x[274] + x[364] + x[6] + x[33] + x[41]
   + x[47] + x[62] + x[220] + x[226] + x[241] + x[256] + x[262] + x[277]
   + x[283] + x[319] + x[367] + x[7] + x[34] + x[48] + x[54] + x[57]
   + x[142] + x[178] + x[298] + x[304] + x[307] + x[334] + x[340] + x[343]
   + x[370] + x[8] + x[35] + x[42] + x[51] + x[60] + x[214] + x[250]
   + x[292] + x[301] + x[310] + x[328] + x[337] + x[346] + x[373] + x[9]
   + x[36] + x[39] + x[45] + x[63] + x[286] + x[289] + x[295] + x[313]
   + x[322] + x[325] + x[331] + x[349] + x[376] + x[10] + x[64] + x[73]
   + x[76] + x[91] + x[209] + x[218] + x[221] + x[236] + x[281] + x[290]
   + x[293] + x[308] + x[353] + x[11] + x[65] + x[79] + x[82] + x[94]
   + x[137] + x[224] + x[227] + x[239] + x[296] + x[299] + x[311] + x[317]
   + x[356] + x[12] + x[66] + x[85] + x[88] + x[97] + x[173] + x[230]
   + x[233] + x[242] + x[245] + x[302] + x[305] + x[314] + x[359] + x[13]
   + x[67] + x[80] + x[86] + x[92] + x[152] + x[158] + x[164] + x[212]
   + x[284] + x[332] + x[338] + x[344] + x[362] + x[14] + x[68] + x[74]
   + x[89] + x[95] + x[140] + x[146] + x[161] + x[167] + x[320] + x[326]
   + x[341] + x[347] + x[365] + x[15] + x[69] + x[77] + x[83] + x[98]
   + x[149] + x[155] + x[170] + x[176] + x[248] + x[329] + x[335] + x[350]
   + x[368] + x[16] + x[70] + x[84] + x[90] + x[93] + x[191] + x[197]
   + x[200] + x[215] + x[263] + x[269] + x[272] + x[287] + x[371] + x[17]
   + x[71] + x[78] + x[87] + x[96] + x[143] + x[185] + x[194] + x[203]
   + x[257] + x[266] + x[275] + x[323] + x[374] + x[18] + x[72] + x[75]
   + x[81] + x[99] + x[179] + x[182] + x[188] + x[206] + x[251] + x[254]
   + x[260] + x[278] + x[377] + x[19] + x[100] + x[109] + x[112] + x[127]
   + x[246] + x[255] + x[258] + x[273] + x[318] + x[327] + x[330] + x[345]
   + x[354] + x[20] + x[101] + x[115] + x[118] + x[130] + x[174] + x[261]
   + x[264] + x[276] + x[282] + x[333] + x[336] + x[348] + x[357] + x[21]
   + x[102] + x[121] + x[124] + x[133] + x[138] + x[210] + x[267] + x[270]
   + x[279] + x[339] + x[342] + x[351] + x[360] + x[22] + x[103] + x[116]
   + x[122] + x[128] + x[189] + x[195] + x[201] + x[249] + x[297] + x[303]
   + x[309] + x[321] + x[363] + x[23] + x[104] + x[110] + x[125] + x[131]
   + x[177] + x[183] + x[198] + x[204] + x[285] + x[291] + x[306] + x[312]
   + x[366] + x[24] + x[105] + x[113] + x[119] + x[134] + x[141] + x[186]
   + x[192] + x[207] + x[213] + x[294] + x[300] + x[315] + x[369] + x[25]
   + x[106] + x[120] + x[126] + x[129] + x[156] + x[162] + x[165] + x[228]
   + x[234] + x[237] + x[252] + x[324] + x[372] + x[26] + x[107] + x[114]
   + x[123] + x[132] + x[150] + x[159] + x[168] + x[180] + x[222] + x[231]
   + x[240] + x[288] + x[375] + x[27] + x[108] + x[111] + x[117] + x[135]
   + x[144] + x[147] + x[153] + x[171] + x[216] + x[219] + x[225] + x[243]
   + x[378]
Subject To
 nod1: 13 x[1] + x[28] + x[37] + x[40] + x[55] + x[136] + x[145] + x[148]
   + x[163] + x[172] + x[181] + x[184] + x[199] + x[352] <= 13
 nod28: x[1] + 3 x[28] + x[29] + x[30] <= 3
 nod37: x[1] + 3 x[37] + x[38] + x[39] <= 3
 nod40: x[1] + 3 x[40] + x[41] + x[42] <= 3
 nod55: x[1] + 3 x[55] + x[56] + x[57] <= 3
 nod136: x[1] + 3 x[136] + x[137] + x[138] <= 3
 nod145: x[1] + 3 x[145] + x[146] + x[147] <= 3
 nod148: x[1] + 3 x[148] + x[149] + x[150] <= 3
 nod163: x[1] + 3 x[163] + x[164] + x[165] <= 3
 nod172: x[1] + 3 x[172] + x[173] + x[174] <= 3
 nod181: x[1] + 3 x[181] + x[182] + x[183] <= 3
 nod184: x[1] + 3 x[184] + x[185] + x[186] <= 3
 nod199: x[1] + 3 x[199] + x[200] + x[201] <= 3
 nod352: x[1] + 3 x[352] + x[353] + x[354] <= 3
 nod2: 13 x[2] + x[29] + x[43] + x[46] + x[58] + x[151] + x[154] + x[166]
   + x[187] + x[190] + x[202] + x[208] + x[244] + x[355] <= 13
 nod29: x[28] + x[2] + 3 x[29] + x[30] <= 3
 nod43: x[2] + 3 x[43] + x[44] + x[45] <= 3
 nod46: x[2] + 3 x[46] + x[47] + x[48] <= 3
 nod58: x[2] + 3 x[58] + x[59] + x[60] <= 3
 nod151: x[2] + 3 x[151] + x[152] + x[153] <= 3
 nod154: x[2] + 3 x[154] + x[155] + x[156] <= 3
 nod166: x[2] + 3 x[166] + x[167] + x[168] <= 3
 nod187: x[2] + 3 x[187] + x[188] + x[189] <= 3
 nod190: x[2] + 3 x[190] + x[191] + x[192] <= 3
 nod202: x[2] + 3 x[202] + x[203] + x[204] <= 3
 nod208: x[2] + 3 x[208] + x[209] + x[210] <= 3
 nod244: x[2] + 3 x[244] + x[245] + x[246] <= 3
 nod355: x[2] + 3 x[355] + x[356] + x[357] <= 3
 nod3: 13 x[3] + x[30] + x[49] + x[52] + x[61] + x[157] + x[160] + x[169]
   + x[193] + x[196] + x[205] + x[280] + x[316] + x[358] <= 13
 nod30: x[28] + x[29] + x[3] + 3 x[30] <= 3
 nod49: x[3] + 3 x[49] + x[50] + x[51] <= 3
 nod52: x[3] + 3 x[52] + x[53] + x[54] <= 3
 nod61: x[3] + 3 x[61] + x[62] + x[63] <= 3
 nod157: x[3] + 3 x[157] + x[158] + x[159] <= 3
 nod160: x[3] + 3 x[160] + x[161] + x[162] <= 3
 nod169: x[3] + 3 x[169] + x[170] + x[171] <= 3
 nod193: x[3] + 3 x[193] + x[194] + x[195] <= 3
 nod196: x[3] + 3 x[196] + x[197] + x[198] <= 3
 nod205: x[3] + 3 x[205] + x[206] + x[207] <= 3
 nod280: x[3] + 3 x[280] + x[281] + x[282] <= 3
 nod316: x[3] + 3 x[316] + x[317] + x[318] <= 3
 nod358: x[3] + 3 x[358] + x[359] + x[360] <= 3
 nod4: 13 x[4] + x[31] + x[44] + x[50] + x[56] + x[139] + x[175] + x[223]
   + x[229] + x[235] + x[259] + x[265] + x[271] + x[361] <= 13
 nod31: x[4] + 3 x[31] + x[32] + x[33] <= 3
 nod44: x[43] + x[4] + 3 x[44] + x[45] <= 3
 nod50: x[49] + x[4] + 3 x[50] + x[51] <= 3
 nod56: x[55] + x[4] + 3 x[56] + x[57] <= 3
 nod139: x[4] + 3 x[139] + x[140] + x[141] <= 3
 nod175: x[4] + 3 x[175] + x[176] + x[177] <= 3
 nod223: x[4] + 3 x[223] + x[224] + x[225] <= 3
 nod229: x[4] + 3 x[229] + x[230] + x[231] <= 3
 nod235: x[4] + 3 x[235] + x[236] + x[237] <= 3
 nod259: x[4] + 3 x[259] + x[260] + x[261] <= 3
 nod265: x[4] + 3 x[265] + x[266] + x[267] <= 3
 nod271: x[4] + 3 x[271] + x[272] + x[273] <= 3
 nod361: x[4] + 3 x[361] + x[362] + x[363] <= 3
 nod5: 13 x[5] + x[32] + x[38] + x[53] + x[59] + x[211] + x[217] + x[232]
   + x[238] + x[247] + x[253] + x[268] + x[274] + x[364] <= 13
 nod32: x[31] + x[5] + 3 x[32] + x[33] <= 3
 nod38: x[37] + x[5] + 3 x[38] + x[39] <= 3
 nod53: x[52] + x[5] + 3 x[53] + x[54] <= 3
 nod59: x[58] + x[5] + 3 x[59] + x[60] <= 3
 nod211: x[5] + 3 x[211] + x[212] + x[213] <= 3
 nod217: x[5] + 3 x[217] + x[218] + x[219] <= 3
 nod232: x[5] + 3 x[232] + x[233] + x[234] <= 3
 nod238: x[5] + 3 x[238] + x[239] + x[240] <= 3
 nod247: x[5] + 3 x[247] + x[248] + x[249] <= 3
 nod253: x[5] + 3 x[253] + x[254] + x[255] <= 3
 nod268: x[5] + 3 x[268] + x[269] + x[270] <= 3
 nod274: x[5] + 3 x[274] + x[275] + x[276] <= 3
 nod364: x[5] + 3 x[364] + x[365] + x[366] <= 3
 nod6: 13 x[6] + x[33] + x[41] + x[47] + x[62] + x[220] + x[226] + x[241]
   + x[256] + x[262] + x[277] + x[283] + x[319] + x[367] <= 13
 nod33: x[31] + x[32] + x[6] + 3 x[33] <= 3
 nod41: x[40] + x[6] + 3 x[41] + x[42] <= 3
 nod47: x[46] + x[6] + 3 x[47] + x[48] <= 3
 nod62: x[61] + x[6] + 3 x[62] + x[63] <= 3
 nod220: x[6] + 3 x[220] + x[221] + x[222] <= 3
 nod226: x[6] + 3 x[226] + x[227] + x[228] <= 3
 nod241: x[6] + 3 x[241] + x[242] + x[243] <= 3
 nod256: x[6] + 3 x[256] + x[257] + x[258] <= 3
 nod262: x[6] + 3 x[262] + x[263] + x[264] <= 3
 nod277: x[6] + 3 x[277] + x[278] + x[279] <= 3
 nod283: x[6] + 3 x[283] + x[284] + x[285] <= 3
 nod319: x[6] + 3 x[319] + x[320] + x[321] <= 3
 nod367: x[6] + 3 x[367] + x[368] + x[369] <= 3
 nod7: 13 x[7] + x[34] + x[48] + x[54] + x[57] + x[142] + x[178] + x[298]
   + x[304] + x[307] + x[334] + x[340] + x[343] + x[370] <= 13
 nod34: x[7] + 3 x[34] + x[35] + x[36] <= 3
 nod48: x[46] + x[47] + x[7] + 3 x[48] <= 3
 nod54: x[52] + x[53] + x[7] + 3 x[54] <= 3
 nod57: x[55] + x[56] + x[7] + 3 x[57] <= 3
 nod142: x[7] + 3 x[142] + x[143] + x[144] <= 3
 nod178: x[7] + 3 x[178] + x[179] + x[180] <= 3
 nod298: x[7] + 3 x[298] + x[299] + x[300] <= 3
 nod304: x[7] + 3 x[304] + x[305] + x[306] <= 3
 nod307: x[7] + 3 x[307] + x[308] + x[309] <= 3
 nod334: x[7] + 3 x[334] + x[335] + x[336] <= 3
 nod340: x[7] + 3 x[340] + x[341] + x[342] <= 3
 nod343: x[7] + 3 x[343] + x[344] + x[345] <= 3
 nod370: x[7] + 3 x[370] + x[371] + x[372] <= 3
 nod8: 13 x[8] + x[35] + x[42] + x[51] + x[60] + x[214] + x[250] + x[292]
   + x[301] + x[310] + x[328] + x[337] + x[346] + x[373] <= 13
 nod35: x[34] + x[8] + 3 x[35] + x[36] <= 3
 nod42: x[40] + x[41] + x[8] + 3 x[42] <= 3
 nod51: x[49] + x[50] + x[8] + 3 x[51] <= 3
 nod60: x[58] + x[59] + x[8] + 3 x[60] <= 3
 nod214: x[8] + 3 x[214] + x[215] + x[216] <= 3
 nod250: x[8] + 3 x[250] + x[251] + x[252] <= 3
 nod292: x[8] + 3 x[292] + x[293] + x[294] <= 3
 nod301: x[8] + 3 x[301] + x[302] + x[303] <= 3
 nod310: x[8] + 3 x[310] + x[311] + x[312] <= 3
 nod328: x[8] + 3 x[328] + x[329] + x[330] <= 3
 nod337: x[8] + 3 x[337] + x[338] + x[339] <= 3
 nod346: x[8] + 3 x[346] + x[347] + x[348] <= 3
 nod373: x[8] + 3 x[373] + x[374] + x[375] <= 3
 nod9: 13 x[9] + x[36] + x[39] + x[45] + x[63] + x[286] + x[289] + x[295]
   + x[313] + x[322] + x[325] + x[331] + x[349] + x[376] <= 13
 nod36: x[34] + x[35] + x[9] + 3 x[36] <= 3
 nod39: x[37] + x[38] + x[9] + 3 x[39] <= 3
 nod45: x[43] + x[44] + x[9] + 3 x[45] <= 3
 nod63: x[61] + x[62] + x[9] + 3 x[63] <= 3
 nod286: x[9] + 3 x[286] + x[287] + x[288] <= 3
 nod289: x[9] + 3 x[289] + x[290] + x[291] <= 3
 nod295: x[9] + 3 x[295] + x[296] + x[297] <= 3
 nod313: x[9] + 3 x[313] + x[314] + x[315] <= 3
 nod322: x[9] + 3 x[322] + x[323] + x[324] <= 3
 nod325: x[9] + 3 x[325] + x[326] + x[327] <= 3
 nod331: x[9] + 3 x[331] + x[332] + x[333] <= 3
 nod349: x[9] + 3 x[349] + x[350] + x[351] <= 3
 nod376: x[9] + 3 x[376] + x[377] + x[378] <= 3
 nod10: 13 x[10] + x[64] + x[73] + x[76] + x[91] + x[209] + x[218] + x[221]
   + x[236] + x[281] + x[290] + x[293] + x[308] + x[353] <= 13
 nod64: x[10] + 3 x[64] + x[65] + x[66] <= 3
 nod73: x[10] + 3 x[73] + x[74] + x[75] <= 3
 nod76: x[10] + 3 x[76] + x[77] + x[78] <= 3
 nod91: x[10] + 3 x[91] + x[92] + x[93] <= 3
 nod209: x[208] + x[10] + 3 x[209] + x[210] <= 3
 nod218: x[217] + x[10] + 3 x[218] + x[219] <= 3
 nod221: x[220] + x[10] + 3 x[221] + x[222] <= 3
 nod236: x[235] + x[10] + 3 x[236] + x[237] <= 3
 nod281: x[280] + x[10] + 3 x[281] + x[282] <= 3
 nod290: x[289] + x[10] + 3 x[290] + x[291] <= 3
 nod293: x[292] + x[10] + 3 x[293] + x[294] <= 3
 nod308: x[307] + x[10] + 3 x[308] + x[309] <= 3
 nod353: x[352] + x[10] + 3 x[353] + x[354] <= 3
 nod11: 13 x[11] + x[65] + x[79] + x[82] + x[94] + x[137] + x[224] + x[227]
   + x[239] + x[296] + x[299] + x[311] + x[317] + x[356] <= 13
 nod65: x[64] + x[11] + 3 x[65] + x[66] <= 3
 nod79: x[11] + 3 x[79] + x[80] + x[81] <= 3
 nod82: x[11] + 3 x[82] + x[83] + x[84] <= 3
 nod94: x[11] + 3 x[94] + x[95] + x[96] <= 3
 nod137: x[136] + x[11] + 3 x[137] + x[138] <= 3
 nod224: x[223] + x[11] + 3 x[224] + x[225] <= 3
 nod227: x[226] + x[11] + 3 x[227] + x[228] <= 3
 nod239: x[238] + x[11] + 3 x[239] + x[240] <= 3
 nod296: x[295] + x[11] + 3 x[296] + x[297] <= 3
 nod299: x[298] + x[11] + 3 x[299] + x[300] <= 3
 nod311: x[310] + x[11] + 3 x[311] + x[312] <= 3
 nod317: x[316] + x[11] + 3 x[317] + x[318] <= 3
 nod356: x[355] + x[11] + 3 x[356] + x[357] <= 3
 nod12: 13 x[12] + x[66] + x[85] + x[88] + x[97] + x[173] + x[230] + x[233]
   + x[242] + x[245] + x[302] + x[305] + x[314] + x[359] <= 13
 nod66: x[64] + x[65] + x[12] + 3 x[66] <= 3
 nod85: x[12] + 3 x[85] + x[86] + x[87] <= 3
 nod88: x[12] + 3 x[88] + x[89] + x[90] <= 3
 nod97: x[12] + 3 x[97] + x[98] + x[99] <= 3
 nod173: x[172] + x[12] + 3 x[173] + x[174] <= 3
 nod230: x[229] + x[12] + 3 x[230] + x[231] <= 3
 nod233: x[232] + x[12] + 3 x[233] + x[234] <= 3
 nod242: x[241] + x[12] + 3 x[242] + x[243] <= 3
 nod245: x[244] + x[12] + 3 x[245] + x[246] <= 3
 nod302: x[301] + x[12] + 3 x[302] + x[303] <= 3
 nod305: x[304] + x[12] + 3 x[305] + x[306] <= 3
 nod314: x[313] + x[12] + 3 x[314] + x[315] <= 3
 nod359: x[358] + x[12] + 3 x[359] + x[360] <= 3
 nod13: 13 x[13] + x[67] + x[80] + x[86] + x[92] + x[152] + x[158] + x[164]
   + x[212] + x[284] + x[332] + x[338] + x[344] + x[362] <= 13
 nod67: x[13] + 3 x[67] + x[68] + x[69] <= 3
 nod80: x[79] + x[13] + 3 x[80] + x[81] <= 3
 nod86: x[85] + x[13] + 3 x[86] + x[87] <= 3
 nod92: x[91] + x[13] + 3 x[92] + x[93] <= 3
 nod152: x[151] + x[13] + 3 x[152] + x[153] <= 3
 nod158: x[157] + x[13] + 3 x[158] + x[159] <= 3
 nod164: x[163] + x[13] + 3 x[164] + x[165] <= 3
 nod212: x[211] + x[13] + 3 x[212] + x[213] <= 3
 nod284: x[283] + x[13] + 3 x[284] + x[285] <= 3
 nod332: x[331] + x[13] + 3 x[332] + x[333] <= 3
 nod338: x[337] + x[13] + 3 x[338] + x[339] <= 3
 nod344: x[343] + x[13] + 3 x[344] + x[345] <= 3
 nod362: x[361] + x[13] + 3 x[362] + x[363] <= 3
 nod14: 13 x[14] + x[68] + x[74] + x[89] + x[95] + x[140] + x[146] + x[161]
   + x[167] + x[320] + x[326] + x[341] + x[347] + x[365] <= 13
 nod68: x[67] + x[14] + 3 x[68] + x[69] <= 3
 nod74: x[73] + x[14] + 3 x[74] + x[75] <= 3
 nod89: x[88] + x[14] + 3 x[89] + x[90] <= 3
 nod95: x[94] + x[14] + 3 x[95] + x[96] <= 3
 nod140: x[139] + x[14] + 3 x[140] + x[141] <= 3
 nod146: x[145] + x[14] + 3 x[146] + x[147] <= 3
 nod161: x[160] + x[14] + 3 x[161] + x[162] <= 3
 nod167: x[166] + x[14] + 3 x[167] + x[168] <= 3
 nod320: x[319] + x[14] + 3 x[320] + x[321] <= 3
 nod326: x[325] + x[14] + 3 x[326] + x[327] <= 3
 nod341: x[340] + x[14] + 3 x[341] + x[342] <= 3
 nod347: x[346] + x[14] + 3 x[347] + x[348] <= 3
 nod365: x[364] + x[14] + 3 x[365] + x[366] <= 3
 nod15: 13 x[15] + x[69] + x[77] + x[83] + x[98] + x[149] + x[155] + x[170]
   + x[176] + x[248] + x[329] + x[335] + x[350] + x[368] <= 13
 nod69: x[67] + x[68] + x[15] + 3 x[69] <= 3
 nod77: x[76] + x[15] + 3 x[77] + x[78] <= 3
 nod83: x[82] + x[15] + 3 x[83] + x[84] <= 3
 nod98: x[97] + x[15] + 3 x[98] + x[99] <= 3
 nod149: x[148] + x[15] + 3 x[149] + x[150] <= 3
 nod155: x[154] + x[15] + 3 x[155] + x[156] <= 3
 nod170: x[169] + x[15] + 3 x[170] + x[171] <= 3
 nod176: x[175] + x[15] + 3 x[176] + x[177] <= 3
 nod248: x[247] + x[15] + 3 x[248] + x[249] <= 3
 nod329: x[328] + x[15] + 3 x[329] + x[330] <= 3
 nod335: x[334] + x[15] + 3 x[335] + x[336] <= 3
 nod350: x[349] + x[15] + 3 x[350] + x[351] <= 3
 nod368: x[367] + x[15] + 3 x[368] + x[369] <= 3
 nod16: 13 x[16] + x[70] + x[84] + x[90] + x[93] + x[191] + x[197] + x[200]
   + x[215] + x[263] + x[269] + x[272] + x[287] + x[371] <= 13
 nod70: x[16] + 3 x[70] + x[71] + x[72] <= 3
 nod84: x[82] + x[83] + x[16] + 3 x[84] <= 3
 nod90: x[88] + x[89] + x[16] + 3 x[90] <= 3
 nod93: x[91] + x[92] + x[16] + 3 x[93] <= 3
 nod191: x[190] + x[16] + 3 x[191] + x[192] <= 3
 nod197: x[196] + x[16] + 3 x[197] + x[198] <= 3
 nod200: x[199] + x[16] + 3 x[200] + x[201] <= 3
 nod215: x[214] + x[16] + 3 x[215] + x[216] <= 3
 nod263: x[262] + x[16] + 3 x[263] + x[264] <= 3
 nod269: x[268] + x[16] + 3 x[269] + x[270] <= 3
 nod272: x[271] + x[16] + 3 x[272] + x[273] <= 3
 nod287: x[286] + x[16] + 3 x[287] + x[288] <= 3
 nod371: x[370] + x[16] + 3 x[371] + x[372] <= 3
 nod17: 13 x[17] + x[71] + x[78] + x[87] + x[96] + x[143] + x[185] + x[194]
   + x[203] + x[257] + x[266] + x[275] + x[323] + x[374] <= 13
 nod71: x[70] + x[17] + 3 x[71] + x[72] <= 3
 nod78: x[76] + x[77] + x[17] + 3 x[78] <= 3
 nod87: x[85] + x[86] + x[17] + 3 x[87] <= 3
 nod96: x[94] + x[95] + x[17] + 3 x[96] <= 3
 nod143: x[142] + x[17] + 3 x[143] + x[144] <= 3
 nod185: x[184] + x[17] + 3 x[185] + x[186] <= 3
 nod194: x[193] + x[17] + 3 x[194] + x[195] <= 3
 nod203: x[202] + x[17] + 3 x[203] + x[204] <= 3
 nod257: x[256] + x[17] + 3 x[257] + x[258] <= 3
 nod266: x[265] + x[17] + 3 x[266] + x[267] <= 3
 nod275: x[274] + x[17] + 3 x[275] + x[276] <= 3
 nod323: x[322] + x[17] + 3 x[323] + x[324] <= 3
 nod374: x[373] + x[17] + 3 x[374] + x[375] <= 3
 nod18: 13 x[18] + x[72] + x[75] + x[81] + x[99] + x[179] + x[182] + x[188]
   + x[206] + x[251] + x[254] + x[260] + x[278] + x[377] <= 13
 nod72: x[70] + x[71] + x[18] + 3 x[72] <= 3
 nod75: x[73] + x[74] + x[18] + 3 x[75] <= 3
 nod81: x[79] + x[80] + x[18] + 3 x[81] <= 3
 nod99: x[97] + x[98] + x[18] + 3 x[99] <= 3
 nod179: x[178] + x[18] + 3 x[179] + x[180] <= 3
 nod182: x[181] + x[18] + 3 x[182] + x[183] <= 3
 nod188: x[187] + x[18] + 3 x[188] + x[189] <= 3
 nod206: x[205] + x[18] + 3 x[206] + x[207] <= 3
 nod251: x[250] + x[18] + 3 x[251] + x[252] <= 3
 nod254: x[253] + x[18] + 3 x[254] + x[255] <= 3
 nod260: x[259] + x[18] + 3 x[260] + x[261] <= 3
 nod278: x[277] + x[18] + 3 x[278] + x[279] <= 3
 nod377: x[376] + x[18] + 3 x[377] + x[378] <= 3
 nod19: 13 x[19] + x[100] + x[109] + x[112] + x[127] + x[246] + x[255]
   + x[258] + x[273] + x[318] + x[327] + x[330] + x[345] + x[354] <= 13
 nod100: x[19] + 3 x[100] + x[101] + x[102] <= 3
 nod109: x[19] + 3 x[109] + x[110] + x[111] <= 3
 nod112: x[19] + 3 x[112] + x[113] + x[114] <= 3
 nod127: x[19] + 3 x[127] + x[128] + x[129] <= 3
 nod246: x[244] + x[245] + x[19] + 3 x[246] <= 3
 nod255: x[253] + x[254] + x[19] + 3 x[255] <= 3
 nod258: x[256] + x[257] + x[19] + 3 x[258] <= 3
 nod273: x[271] + x[272] + x[19] + 3 x[273] <= 3
 nod318: x[316] + x[317] + x[19] + 3 x[318] <= 3
 nod327: x[325] + x[326] + x[19] + 3 x[327] <= 3
 nod330: x[328] + x[329] + x[19] + 3 x[330] <= 3
 nod345: x[343] + x[344] + x[19] + 3 x[345] <= 3
 nod354: x[352] + x[353] + x[19] + 3 x[354] <= 3
 nod20: 13 x[20] + x[101] + x[115] + x[118] + x[130] + x[174] + x[261]
   + x[264] + x[276] + x[282] + x[333] + x[336] + x[348] + x[357] <= 13
 nod101: x[100] + x[20] + 3 x[101] + x[102] <= 3
 nod115: x[20] + 3 x[115] + x[116] + x[117] <= 3
 nod118: x[20] + 3 x[118] + x[119] + x[120] <= 3
 nod130: x[20] + 3 x[130] + x[131] + x[132] <= 3
 nod174: x[172] + x[173] + x[20] + 3 x[174] <= 3
 nod261: x[259] + x[260] + x[20] + 3 x[261] <= 3
 nod264: x[262] + x[263] + x[20] + 3 x[264] <= 3
 nod276: x[274] + x[275] + x[20] + 3 x[276] <= 3
 nod282: x[280] + x[281] + x[20] + 3 x[282] <= 3
 nod333: x[331] + x[332] + x[20] + 3 x[333] <= 3
 nod336: x[334] + x[335] + x[20] + 3 x[336] <= 3
 nod348: x[346] + x[347] + x[20] + 3 x[348] <= 3
 nod357: x[355] + x[356] + x[20] + 3 x[357] <= 3
 nod21: 13 x[21] + x[102] + x[121] + x[124] + x[133] + x[138] + x[210]
   + x[267] + x[270] + x[279] + x[339] + x[342] + x[351] + x[360] <= 13
 nod102: x[100] + x[101] + x[21] + 3 x[102] <= 3
 nod121: x[21] + 3 x[121] + x[122] + x[123] <= 3
 nod124: x[21] + 3 x[124] + x[125] + x[126] <= 3
 nod133: x[21] + 3 x[133] + x[134] + x[135] <= 3
 nod138: x[136] + x[137] + x[21] + 3 x[138] <= 3
 nod210: x[208] + x[209] + x[21] + 3 x[210] <= 3
 nod267: x[265] + x[266] + x[21] + 3 x[267] <= 3
 nod270: x[268] + x[269] + x[21] + 3 x[270] <= 3
 nod279: x[277] + x[278] + x[21] + 3 x[279] <= 3
 nod339: x[337] + x[338] + x[21] + 3 x[339] <= 3
 nod342: x[340] + x[341] + x[21] + 3 x[342] <= 3
 nod351: x[349] + x[350] + x[21] + 3 x[351] <= 3
 nod360: x[358] + x[359] + x[21] + 3 x[360] <= 3
 nod22: 13 x[22] + x[103] + x[116] + x[122] + x[128] + x[189] + x[195]
   + x[201] + x[249] + x[297] + x[303] + x[309] + x[321] + x[363] <= 13
 nod103: x[22] + 3 x[103] + x[104] + x[105] <= 3
 nod116: x[115] + x[22] + 3 x[116] + x[117] <= 3
 nod122: x[121] + x[22] + 3 x[122] + x[123] <= 3
 nod128: x[127] + x[22] + 3 x[128] + x[129] <= 3
 nod189: x[187] + x[188] + x[22] + 3 x[189] <= 3
 nod195: x[193] + x[194] + x[22] + 3 x[195] <= 3
 nod201: x[199] + x[200] + x[22] + 3 x[201] <= 3
 nod249: x[247] + x[248] + x[22] + 3 x[249] <= 3
 nod297: x[295] + x[296] + x[22] + 3 x[297] <= 3
 nod303: x[301] + x[302] + x[22] + 3 x[303] <= 3
 nod309: x[307] + x[308] + x[22] + 3 x[309] <= 3
 nod321: x[319] + x[320] + x[22] + 3 x[321] <= 3
 nod363: x[361] + x[362] + x[22] + 3 x[363] <= 3
 nod23: 13 x[23] + x[104] + x[110] + x[125] + x[131] + x[177] + x[183]
   + x[198] + x[204] + x[285] + x[291] + x[306] + x[312] + x[366] <= 13
 nod104: x[103] + x[23] + 3 x[104] + x[105] <= 3
 nod110: x[109] + x[23] + 3 x[110] + x[111] <= 3
 nod125: x[124] + x[23] + 3 x[125] + x[126] <= 3
 nod131: x[130] + x[23] + 3 x[131] + x[132] <= 3
 nod177: x[175] + x[176] + x[23] + 3 x[177] <= 3
 nod183: x[181] + x[182] + x[23] + 3 x[183] <= 3
 nod198: x[196] + x[197] + x[23] + 3 x[198] <= 3
 nod204: x[202] + x[203] + x[23] + 3 x[204] <= 3
 nod285: x[283] + x[284] + x[23] + 3 x[285] <= 3
 nod291: x[289] + x[290] + x[23] + 3 x[291] <= 3
 nod306: x[304] + x[305] + x[23] + 3 x[306] <= 3
 nod312: x[310] + x[311] + x[23] + 3 x[312] <= 3
 nod366: x[364] + x[365] + x[23] + 3 x[366] <= 3
 nod24: 13 x[24] + x[105] + x[113] + x[119] + x[134] + x[141] + x[186]
   + x[192] + x[207] + x[213] + x[294] + x[300] + x[315] + x[369] <= 13
 nod105: x[103] + x[104] + x[24] + 3 x[105] <= 3
 nod113: x[112] + x[24] + 3 x[113] + x[114] <= 3
 nod119: x[118] + x[24] + 3 x[119] + x[120] <= 3
 nod134: x[133] + x[24] + 3 x[134] + x[135] <= 3
 nod141: x[139] + x[140] + x[24] + 3 x[141] <= 3
 nod186: x[184] + x[185] + x[24] + 3 x[186] <= 3
 nod192: x[190] + x[191] + x[24] + 3 x[192] <= 3
 nod207: x[205] + x[206] + x[24] + 3 x[207] <= 3
 nod213: x[211] + x[212] + x[24] + 3 x[213] <= 3
 nod294: x[292] + x[293] + x[24] + 3 x[294] <= 3
 nod300: x[298] + x[299] + x[24] + 3 x[300] <= 3
 nod315: x[313] + x[314] + x[24] + 3 x[315] <= 3
 nod369: x[367] + x[368] + x[24] + 3 x[369] <= 3
 nod25: 13 x[25] + x[106] + x[120] + x[126] + x[129] + x[156] + x[162]
   + x[165] + x[228] + x[234] + x[237] + x[252] + x[324] + x[372] <= 13
 nod106: x[25] + 3 x[106] + x[107] + x[108] <= 3
 nod120: x[118] + x[119] + x[25] + 3 x[120] <= 3
 nod126: x[124] + x[125] + x[25] + 3 x[126] <= 3
 nod129: x[127] + x[128] + x[25] + 3 x[129] <= 3
 nod156: x[154] + x[155] + x[25] + 3 x[156] <= 3
 nod162: x[160] + x[161] + x[25] + 3 x[162] <= 3
 nod165: x[163] + x[164] + x[25] + 3 x[165] <= 3
 nod228: x[226] + x[227] + x[25] + 3 x[228] <= 3
 nod234: x[232] + x[233] + x[25] + 3 x[234] <= 3
 nod237: x[235] + x[236] + x[25] + 3 x[237] <= 3
 nod252: x[250] + x[251] + x[25] + 3 x[252] <= 3
 nod324: x[322] + x[323] + x[25] + 3 x[324] <= 3
 nod372: x[370] + x[371] + x[25] + 3 x[372] <= 3
 nod26: 13 x[26] + x[107] + x[114] + x[123] + x[132] + x[150] + x[159]
   + x[168] + x[180] + x[222] + x[231] + x[240] + x[288] + x[375] <= 13
 nod107: x[106] + x[26] + 3 x[107] + x[108] <= 3
 nod114: x[112] + x[113] + x[26] + 3 x[114] <= 3
 nod123: x[121] + x[122] + x[26] + 3 x[123] <= 3
 nod132: x[130] + x[131] + x[26] + 3 x[132] <= 3
 nod150: x[148] + x[149] + x[26] + 3 x[150] <= 3
 nod159: x[157] + x[158] + x[26] + 3 x[159] <= 3
 nod168: x[166] + x[167] + x[26] + 3 x[168] <= 3
 nod180: x[178] + x[179] + x[26] + 3 x[180] <= 3
 nod222: x[220] + x[221] + x[26] + 3 x[222] <= 3
 nod231: x[229] + x[230] + x[26] + 3 x[231] <= 3
 nod240: x[238] + x[239] + x[26] + 3 x[240] <= 3
 nod288: x[286] + x[287] + x[26] + 3 x[288] <= 3
 nod375: x[373] + x[374] + x[26] + 3 x[375] <= 3
 nod27: 13 x[27] + x[108] + x[111] + x[117] + x[135] + x[144] + x[147]
   + x[153] + x[171] + x[216] + x[219] + x[225] + x[243] + x[378] <= 13
 nod108: x[106] + x[107] + x[27] + 3 x[108] <= 3
 nod111: x[109] + x[110] + x[27] + 3 x[111] <= 3
 nod117: x[115] + x[116] + x[27] + 3 x[117] <= 3
 nod135: x[133] + x[134] + x[27] + 3 x[135] <= 3
 nod144: x[142] + x[143] + x[27] + 3 x[144] <= 3
 nod147: x[145] + x[146] + x[27] + 3 x[147] <= 3
 nod153: x[151] + x[152] + x[27] + 3 x[153] <= 3
 nod171: x[169] + x[170] + x[27] + 3 x[171] <= 3
 nod216: x[214] + x[215] + x[27] + 3 x[216] <= 3
 nod219: x[217] + x[218] + x[27] + 3 x[219] <= 3
 nod225: x[223] + x[224] + x[27] + 3 x[225] <= 3
 nod243: x[241] + x[242] + x[27] + 3 x[243] <= 3
 nod378: x[376] + x[377] + x[27] + 3 x[378] <= 3
Bounds
Binaries
 x[1] x[28] x[37] x[40] x[55] x[136] x[145] x[148] x[163] x[172] x[181]
 x[184] x[199] x[352] x[2] x[29] x[43] x[46] x[58] x[151] x[154] x[166]
 x[187] x[190] x[202] x[208] x[244] x[355] x[3] x[30] x[49] x[52] x[61]
 x[157] x[160] x[169] x[193] x[196] x[205] x[280] x[316] x[358] x[4] x[31]
 x[44] x[50] x[56] x[139] x[175] x[223] x[229] x[235] x[259] x[265] x[271]
 x[361] x[5] x[32] x[38] x[53] x[59] x[211] x[217] x[232] x[238] x[247]
 x[253] x[268] x[274] x[364] x[6] x[33] x[41] x[47] x[62] x[220] x[226]
 x[241] x[256] x[262] x[277] x[283] x[319] x[367] x[7] x[34] x[48] x[54]
 x[57] x[142] x[178] x[298] x[304] x[307] x[334] x[340] x[343] x[370] x[8]
 x[35] x[42] x[51] x[60] x[214] x[250] x[292] x[301] x[310] x[328] x[337]
 x[346] x[373] x[9] x[36] x[39] x[45] x[63] x[286] x[289] x[295] x[313]
 x[322] x[325] x[331] x[349] x[376] x[10] x[64] x[73] x[76] x[91] x[209]
 x[218] x[221] x[236] x[281] x[290] x[293] x[308] x[353] x[11] x[65] x[79]
 x[82] x[94] x[137] x[224] x[227] x[239] x[296] x[299] x[311] x[317] x[356]
 x[12] x[66] x[85] x[88] x[97] x[173] x[230] x[233] x[242] x[245] x[302]
 x[305] x[314] x[359] x[13] x[67] x[80] x[86] x[92] x[152] x[158] x[164]
 x[212] x[284] x[332] x[338] x[344] x[362] x[14] x[68] x[74] x[89] x[95]
 x[140] x[146] x[161] x[167] x[320] x[326] x[341] x[347] x[365] x[15] x[69]
 x[77] x[83] x[98] x[149] x[155] x[170] x[176] x[248] x[329] x[335] x[350]
 x[368] x[16] x[70] x[84] x[90] x[93] x[191] x[197] x[200] x[215] x[263]
 x[269] x[272] x[287] x[371] x[17] x[71] x[78] x[87] x[96] x[143] x[185]
 x[194] x[203] x[257] x[266] x[275] x[323] x[374] x[18] x[72] x[75] x[81]
 x[99] x[179] x[182] x[188] x[206] x[251] x[254] x[260] x[278] x[377] x[19]
 x[100] x[109] x[112] x[127] x[246] x[255] x[258] x[273] x[318] x[327]
 x[330] x[345] x[354] x[20] x[101] x[115] x[118] x[130] x[174] x[261]
 x[264] x[276] x[282] x[333] x[336] x[348] x[357] x[21] x[102] x[121]
 x[124] x[133] x[138] x[210] x[267] x[270] x[279] x[339] x[342] x[351]
 x[360] x[22] x[103] x[116] x[122] x[128] x[189] x[195] x[201] x[249]
 x[297] x[303] x[309] x[321] x[363] x[23] x[104] x[110] x[125] x[131]
 x[177] x[183] x[198] x[204] x[285] x[291] x[306] x[312] x[366] x[24]
 x[105] x[113] x[119] x[134] x[141] x[186] x[192] x[207] x[213] x[294]
 x[300] x[315] x[369] x[25] x[106] x[120] x[126] x[129] x[156] x[162]
 x[165] x[228] x[234] x[237] x[252] x[324] x[372] x[26] x[107] x[114]
 x[123] x[132] x[150] x[159] x[168] x[180] x[222] x[231] x[240] x[288]
 x[375] x[27] x[108] x[111] x[117] x[135] x[144] x[147] x[153] x[171]
 x[216] x[219] x[225] x[243] x[378]
End
